examples/nonlinear.lp
\* SMT到LP转换生成的线性程序 *\

Minimize
obj: 0

Subject To
c0: x >= -0
c1: y >= -0
c2: x <= 5
c3: y <= 5
c4: y + x >= 1

Bounds
y free
x free

End
