examples/nonlinear.mps
NAME          SMT2LP
ROWS
 N  OBJ
 G  C0
 G  C1
 L  C2
 L  C3
 G  C4
COLUMNS
    y  OBJ       0
    y  C1       1
    y  C3       1
    y  C4       1
    x  OBJ       0
    x  C0       1
    x  C2       1
    x  C4       1
RHS
    RHS1      C0       -0
    RHS1      C1       -0
    RHS1      C2       5
    RHS1      C3       5
    RHS1      C4       1
BOUNDS
ENDATA
